letting initialStacks = [42, 31, 3, 40, 6, 9, 46, 1, 16, 7, 14, 4, 39, 8, 36, 38, 27, 26, 44, 2, 22, 10, 41, 18, 19, 23, 15, 33, 48, 35, 32, 12, 29, 51, 37, 13, 34, 28, 49, 24, 11, 25, 21, 43, 20, 45, 30, 5, 17, 47, 50]
